% Generated by: ../scripts/flowoutput2dzn.py -i ../tap/ChicagoRegional_mods.txt ../tap/results/ChicagoRegional_fw_out.txt ../tap/results/ChicagoRegional_mods_goliath.err ../tap/ChicagoRegional_only1pairwise.err 10000000
% On: 18Aug2011 15:58:10
%%VHT2dollarFactor = 3650.000000 ;
%%interestRate = 0.040000 ;
n = 8;
Budget = 10000000;
upgradeName = ["03_02_9005", "03_03_0101", "03_95_0001", "03_96_0024", "07_06_0014", "07_94_0027", "07_96_0013", "07_97_0055"];
cost = [999999, 465000, 4000000, 1000000, 472000, 700000, 748000, 4000000];
benefitVHT = [-1, 450, 21673, -16, 3540, 154, 16825, 3372];
PairMinusSumVHT = [| 1, 0, 0, 0, 0, 0, 0, 0, 
| 0, -450, 0, 0, 0, 0, 0, 0, 
| 0, 0, -21673, 0, 0, 0, 0, 0, 
| 0, 0, 0, 16, 0, 0, 0, 0, 
| 0, 0, 0, 0, -3540, 0, 0, 0, 
| 0, 0, 0, 0, 0, -154, 3280, 0, 
| 0, 0, 0, 0, 0, 3280, -16825, 0, 
| 0, 0, 0, 0, 0, 0, 0, -3372, 
|];
